2 0 2 0
1 0 1 0
0 0 2 5
2 1 3 5
2 2 5 9
1 1 2 8
1 2 4 13
3 0 1 8
4 0 2 13
5 0 1 13
3 1 0 13
5 1 3 16
5 2 5 19
4 1 1 22
0 1 0 18
1 3 5 28
2 3 0 21
3 2 2 22
3 3 3 27
4 2 4 25
3 4 4 30
0 2 1 25
5 3 0 30
0 3 3 31
1 4 0 40
2 4 1 31
4 3 5 38
1 5 3 50
0 4 5 42
4 4 0 50
2 5 4 38
4 5 3 54
5 4 4 45
5 5 2 49
3 5 5 45
0 5 4 49
